PARAMETER_FILE = even/LKH_uncomplete_graph/x5/nei/par/random144.par
PROBLEM_FILE = even/LKH_uncomplete_graph/x5/nei/mat/random144.tsp
Successes/Runs = 0/10
Cost.min = 914, Cost.avg = 914.00, Cost.max = 914
Gap.min = 0.0000%, Gap.avg = 0.0000%, Gap.max = 0.0000%
Trials.min = 1000, Trials.avg = 1000.0, Trials.max = 1000
Time.min = 0.28 sec., Time.avg = 0.33 sec., Time.max = 0.53 sec.
Time.total = 3.41 sec.
请按任意键继续. . . 
